0
Node Left Objective IInf Best_Integer Best_Bound ItCnt Gap
0+ 0 nan nan 136.4723 0.0000 nan 100.00%
0+ 0 nan nan 99.3310 0.0000 nan 100.00%
0 0 24.4170 14 99.3310 24.4170 133 75.42%
0+ 0 nan nan 91.3252 24.4170 nan 73.26%
0 0 33.2228 15 91.3252 Cuts:19 176 63.62%
0+ 0 nan nan 67.2946 33.2228 nan 50.63%
0 0 33.3247 16 67.2946 Disjcuts:2 180 50.48%
0 0 33.9157 15 67.2946 Cuts:10 191 49.60%
0+ 0 nan nan 61.7359 33.9157 nan 45.06%
0 0 35.4987 15 61.7359 Cuts:12 219 42.50%
0 0 36.6271 16 61.7359 Cuts:14 240 40.67%
0 0 36.6486 16 61.7359 Fract:1 244 40.64%
0 0 36.6505 16 61.7359 Disjcuts:1 246 40.63%
0 0 36.6817 16 61.7359 Fract:1 249 40.58%
0 0 36.6895 16 61.7359 Fract:1 253 40.57%
0 0 36.7422 16 61.7359 Fract:1 259 40.48%
0 2 36.7422 16 61.7359 36.9215 259 40.19%
CPXPARAM_MIP_Cuts_Gomory-Disjunctive:Gomory 6
CPXPARAM_MIP_Cuts_Gomory-Disjunctive:Disjunctive 5
1
Node Left Objective IInf Best_Integer Best_Bound ItCnt Gap
0+ 0 nan nan 136.4723 0.0000 nan 100.00%
0+ 0 nan nan 99.3310 0.0000 nan 100.00%
0+ 0 nan nan 92.6197 0.0000 nan 100.00%
0 0 0.6675 26 92.6197 0.6675 123 99.28%
0 0 3.7889 24 92.6197 Cuts:23 153 95.91%
0+ 0 nan nan 21.0972 3.7889 nan 82.04%
0 0 5.1868 23 21.0972 Cuts:18 186 75.41%
0 0 5.4620 22 21.0972 Disjcuts:4 201 74.11%
0+ 0 nan nan 18.5290 5.4620 nan 70.52%
0 0 5.5109 22 18.5290 Cuts:2 208 70.26%
0 0 5.8726 20 18.5290 Disjcuts:4 238 68.31%
0+ 0 nan nan 11.7670 5.8726 nan 50.09%
0 0 5.8934 20 11.7670 Cuts:3 243 49.92%
0 2 7.0240 8 11.7670 7.0670 243 39.94%
CPXPARAM_MIP_Cuts_Gomory-Disjunctive:Gomory 4
CPXPARAM_MIP_Cuts_Gomory-Disjunctive:Disjunctive 13
2
Node Left Objective IInf Best_Integer Best_Bound ItCnt Gap
0+ 0 nan nan 136.4723 0.0000 nan 100.00%
0+ 0 nan nan 72.0230 0.0000 nan 100.00%
0 0 22.6334 9 72.0230 22.6334 129 68.57%
0 0 28.6727 9 72.0230 Cuts:12 155 60.19%
0+ 0 nan nan 55.7527 28.6727 nan 48.57%
0 0 28.6727 9 55.7527 Disjcuts:1 157 48.57%
0+ 0 nan nan 51.0774 28.6727 nan 43.86%
0 2 28.6727 9 51.0774 28.9890 157 43.25%
CPXPARAM_MIP_Cuts_Gomory-Disjunctive:Gomory 0
CPXPARAM_MIP_Cuts_Gomory-Disjunctive:Disjunctive 3
3
Node Left Objective IInf Best_Integer Best_Bound ItCnt Gap
0+ 0 nan nan 136.4723 0.0000 nan 100.00%
0+ 0 nan nan 78.8830 0.0000 nan 100.00%
0 0 0.3026 20 78.8830 0.3026 110 99.62%
0+ 0 nan nan 59.7230 0.3026 nan 99.49%
0 0 2.6956 16 59.7230 Cuts:19 140 95.49%
0+ 0 nan nan 31.3407 2.6956 nan 91.40%
0 0 3.5707 17 31.3407 Disjcuts:7 159 88.61%
0+ 0 nan nan 23.1833 3.5707 nan 84.60%
0 0 3.6060 15 23.1833 Disjcuts:2 166 84.45%
0 0 3.6101 15 23.1833 Disjcuts:1 168 84.43%
0 0 5.5174 13 23.1833 Cuts:11 196 76.20%
0+ 0 nan nan 14.3912 5.5174 nan 61.66%
0+ 0 nan nan 6.8876 5.5174 nan 19.89%
0 1 6.6698 5 6.8876 6.6698 196 3.16%
CPXPARAM_MIP_Cuts_Gomory-Disjunctive:Gomory 5
CPXPARAM_MIP_Cuts_Gomory-Disjunctive:Disjunctive 5
4
Node Left Objective IInf Best_Integer Best_Bound ItCnt Gap
0+ 0 nan nan 115.1924 0.0000 nan 100.00%
0+ 0 nan nan 108.1598 0.0000 nan 100.00%
0+ 0 nan nan 102.3525 0.0000 nan 100.00%
0 0 23.6849 14 102.3525 23.6849 149 76.86%
0+ 0 nan nan 86.4233 23.6849 nan 72.59%
0 0 29.2087 15 86.4233 Cuts:20 189 66.20%
0+ 0 nan nan 80.6515 29.2087 nan 63.78%
0 0 29.2322 15 80.6515 Disjcuts:2 195 63.75%
0+ 0 nan nan 61.6267 29.2322 nan 52.57%
0 0 29.2723 15 61.6267 Disjcuts:2 201 52.50%
0 0 29.8346 14 61.6267 Cuts:10 224 51.59%
0 0 33.3306 14 61.6267 Cuts:11 252 45.92%
0 0 33.4717 13 61.6267 Fract:1 261 45.69%
0 2 33.4717 13 61.6267 33.4969 261 45.65%
CPXPARAM_MIP_Cuts_Gomory-Disjunctive:Gomory 2
CPXPARAM_MIP_Cuts_Gomory-Disjunctive:Disjunctive 5
5
Node Left Objective IInf Best_Integer Best_Bound ItCnt Gap
0+ 0 nan nan 115.1924 0.0000 nan 100.00%
0+ 0 nan nan 108.1598 0.0000 nan 100.00%
0+ 0 nan nan 83.4389 0.0000 nan 100.00%
0 0 0.5012 24 83.4389 0.5012 125 99.40%
0+ 0 nan nan 52.2996 0.5012 nan 99.04%
0 0 5.6101 23 52.2996 Cuts:25 159 89.27%
0+ 0 nan nan 28.6257 5.6101 nan 80.40%
0 0 5.6101 22 28.6257 Disjcuts:1 160 80.40%
0+ 0 nan nan 21.1102 5.6101 nan 73.42%
0 2 5.6101 21 21.1102 5.6336 160 73.31%
CPXPARAM_MIP_Cuts_Gomory-Disjunctive:Gomory 2
CPXPARAM_MIP_Cuts_Gomory-Disjunctive:Disjunctive 7
6
Node Left Objective IInf Best_Integer Best_Bound ItCnt Gap
0+ 0 nan nan 115.1924 0.0000 nan 100.00%
0+ 0 nan nan 82.6615 0.0000 nan 100.00%
0 0 24.8139 9 82.6615 24.8139 129 69.98%
0+ 0 nan nan 71.8353 24.8139 nan 65.46%
0 0 27.8168 9 71.8353 Disjcuts:3 138 61.28%
0+ 0 nan nan 54.6460 27.8168 nan 49.10%
0 0 31.7280 8 54.6460 Disjcuts:7 162 41.94%
0 0 32.6952 9 54.6460 Disjcuts:4 180 40.17%
0 0 32.8828 9 54.6460 Disjcuts:1 187 39.83%
0+ 0 nan nan 53.4415 32.8828 nan 38.47%
0 0 33.9503 8 53.4415 Cuts:7 213 36.47%
0 0 34.5295 7 53.4415 Fract:1 230 35.39%
0+ 0 nan nan 52.1238 34.5295 nan 33.75%
0 2 34.5295 7 52.1238 35.6896 230 31.53%
CPXPARAM_MIP_Cuts_Gomory-Disjunctive:Gomory 2
CPXPARAM_MIP_Cuts_Gomory-Disjunctive:Disjunctive 4
7
Node Left Objective IInf Best_Integer Best_Bound ItCnt Gap
0+ 0 nan nan 115.1924 0.0000 nan 100.00%
0+ 0 nan nan 86.0575 0.0000 nan 100.00%
0 0 0.0036 22 86.0575 0.0036 119 100.00%
0+ 0 nan nan 43.5961 0.0036 nan 99.99%
0 0 3.8418 17 43.5961 Cuts:30 179 91.19%
0+ 0 nan nan 10.3017 3.8418 nan 62.71%
0 0 3.9019 16 10.3017 Disjcuts:1 182 62.12%
0 2 6.2366 7 10.3017 6.3487 182 38.37%
CPXPARAM_MIP_Cuts_Gomory-Disjunctive:Gomory 1
CPXPARAM_MIP_Cuts_Gomory-Disjunctive:Disjunctive 10
8
Node Left Objective IInf Best_Integer Best_Bound ItCnt Gap
0+ 0 nan nan 131.6037 0.0000 nan 100.00%
0+ 0 nan nan 112.2485 0.0000 nan 100.00%
0 0 45.7863 15 112.2485 45.7863 126 59.21%
0+ 0 nan nan 98.1321 45.7863 nan 53.34%
0 0 52.9862 17 98.1321 Cuts:19 147 46.01%
0 0 53.1504 14 98.1321 Disjcuts:4 151 45.84%
0+ 0 nan nan 87.3559 53.1504 nan 39.16%
0 0 55.1042 16 87.3559 Cuts:7 181 36.92%
0 0 55.6225 17 87.3559 Disjcuts:7 203 36.33%
0 0 55.6799 16 87.3559 Disjcuts:2 208 36.26%
0+ 0 nan nan 82.6619 55.6799 nan 32.64%
0 2 55.6799 16 82.6619 55.7471 208 32.56%
CPXPARAM_MIP_Cuts_Gomory-Disjunctive:Gomory 1
CPXPARAM_MIP_Cuts_Gomory-Disjunctive:Disjunctive 8
9
Node Left Objective IInf Best_Integer Best_Bound ItCnt Gap
0+ 0 nan nan 131.6037 0.0000 nan 100.00%
0+ 0 nan nan 111.7972 0.0000 nan 100.00%
0+ 0 nan nan 83.4511 0.0000 nan 100.00%
0 0 0.5228 27 83.4511 0.5228 117 99.37%
0+ 0 nan nan 66.1456 0.5228 nan 99.21%
0 0 4.8939 22 66.1456 Cuts:27 167 92.60%
0+ 0 nan nan 41.5035 4.8939 nan 88.21%
0 0 5.9167 22 41.5035 Disjcuts:8 180 85.74%
0+ 0 nan nan 39.6560 5.9167 nan 85.08%
0 0 5.9167 22 39.6560 Disjcuts:1 183 85.08%
0+ 0 nan nan 35.7106 5.9167 nan 83.43%
0 0 5.9247 21 35.7106 Disjcuts:1 186 83.41%
0+ 0 nan nan 30.9334 5.9247 nan 80.85%
0 2 5.9247 21 30.9334 6.0065 186 80.58%
CPXPARAM_MIP_Cuts_Gomory-Disjunctive:Gomory 3
CPXPARAM_MIP_Cuts_Gomory-Disjunctive:Disjunctive 9
10
Node Left Objective IInf Best_Integer Best_Bound ItCnt Gap
0+ 0 nan nan 131.6037 0.0000 nan 100.00%
0+ 0 nan nan 103.2308 0.0000 nan 100.00%
0 0 38.3907 9 103.2308 38.3907 132 62.81%
0+ 0 nan nan 95.7077 38.3907 nan 59.89%
0 0 47.7614 7 95.7077 Cuts:7 153 50.10%
0+ 0 nan nan 84.3558 47.7614 nan 43.38%
0 0 48.4343 7 84.3558 Disjcuts:3 166 42.58%
0+ 0 nan nan 80.5636 48.4343 nan 39.88%
0 0 48.5105 9 80.5636 Disjcuts:1 172 39.79%
0 0 48.5161 9 80.5636 Disjcuts:1 175 39.78%
0+ 0 nan nan 74.8050 48.5161 nan 35.14%
0+ 0 nan nan 74.1011 48.5161 nan 34.53%
0 2 48.5161 9 74.1011 48.5286 175 34.51%
CPXPARAM_MIP_Cuts_Gomory-Disjunctive:Gomory 2
CPXPARAM_MIP_Cuts_Gomory-Disjunctive:Disjunctive 3
11
Node Left Objective IInf Best_Integer Best_Bound ItCnt Gap
0+ 0 nan nan 131.6037 0.0000 nan 100.00%
0+ 0 nan nan 119.4045 0.0000 nan 100.00%
0 0 0.0384 21 119.4045 0.0384 109 99.97%
0+ 0 nan nan 53.3751 0.0384 nan 99.93%
0 0 4.4273 17 53.3751 Cuts:28 164 91.71%
0+ 0 nan nan 37.0789 4.4273 nan 88.06%
0 0 4.4312 17 37.0789 Disjcuts:2 175 88.05%
0 0 4.9676 13 37.0789 Cuts:7 197 86.60%
0+ 0 nan nan 34.4775 4.9676 nan 85.59%
0 0 5.1373 15 34.4775 Fract:2 209 85.10%
0+ 0 nan nan 22.9033 5.1373 nan 77.57%
0 0 5.5514 15 22.9033 Cuts:6 230 75.76%
0 2 5.5514 15 22.9033 5.7017 230 75.11%
CPXPARAM_MIP_Cuts_Gomory-Disjunctive:Gomory 3
CPXPARAM_MIP_Cuts_Gomory-Disjunctive:Disjunctive 8
12
Node Left Objective IInf Best_Integer Best_Bound ItCnt Gap
0+ 0 nan nan 110.3567 0.0000 nan 100.00%
0+ 0 nan nan 96.8755 0.0000 nan 100.00%
0 0 29.3411 15 96.8755 29.3411 140 69.71%
0+ 0 nan nan 82.7988 29.3411 nan 64.56%
0 0 38.5270 15 82.7988 Cuts:21 181 53.47%
0+ 0 nan nan 81.6611 38.5270 nan 52.82%
0 0 39.2252 15 81.6611 Cuts:5 191 51.97%
0 0 39.9292 13 81.6611 Cuts:7 210 51.10%
0+ 0 nan nan 68.7653 39.9292 nan 41.93%
0 0 40.9416 14 68.7653 Cuts:8 223 40.46%
0 0 41.0036 14 68.7653 Cuts:3 226 40.37%
0+ 0 nan nan 58.1753 41.0036 nan 29.52%
0 2 41.0036 14 58.1753 41.3321 226 28.95%
CPXPARAM_MIP_Cuts_Gomory-Disjunctive:Gomory 5
CPXPARAM_MIP_Cuts_Gomory-Disjunctive:Disjunctive 4
13
Node Left Objective IInf Best_Integer Best_Bound ItCnt Gap
0+ 0 nan nan 110.3567 0.0000 nan 100.00%
0+ 0 nan nan 96.8755 0.0000 nan 100.00%
0+ 0 nan nan 82.0823 0.0000 nan 100.00%
0 0 0.5309 26 82.0823 0.5309 120 99.35%
0+ 0 nan nan 75.6071 0.5309 nan 99.30%
0 0 4.4948 25 75.6071 Cuts:24 163 94.06%
0+ 0 nan nan 48.4510 4.4948 nan 90.72%
0 0 5.2557 23 48.4510 Disjcuts:6 181 89.15%
0+ 0 nan nan 41.2448 5.2557 nan 87.26%
0 0 5.4780 24 41.2448 Disjcuts:2 190 86.72%
0+ 0 nan nan 35.6227 5.4780 nan 84.62%
0 0 5.5077 25 35.6227 Disjcuts:1 193 84.54%
0+ 0 nan nan 34.6240 5.5077 nan 84.09%
0 0 5.7977 23 34.6240 Disjcuts:4 203 83.26%
0+ 0 nan nan 25.7835 5.7977 nan 77.51%
0+ 0 nan nan 25.5815 5.7977 nan 77.34%
0+ 0 nan nan 24.4566 5.7977 nan 76.29%
0+ 0 nan nan 24.1761 5.7977 nan 76.02%
0 2 5.7977 23 24.1761 5.8991 203 75.60%
CPXPARAM_MIP_Cuts_Gomory-Disjunctive:Gomory 1
CPXPARAM_MIP_Cuts_Gomory-Disjunctive:Disjunctive 11
14
Node Left Objective IInf Best_Integer Best_Bound ItCnt Gap
0+ 0 nan nan 110.3567 0.0000 nan 100.00%
0+ 0 nan nan 82.1268 0.0000 nan 100.00%
0 0 26.8968 8 82.1268 26.8968 122 67.25%
0+ 0 nan nan 70.4047 26.8968 nan 61.80%
0 0 31.0075 8 70.4047 Cuts:12 142 55.96%
0+ 0 nan nan 65.5472 31.0075 nan 52.69%
0 0 31.0607 8 65.5472 Disjcuts:1 148 52.61%
0+ 0 nan nan 64.7207 31.0607 nan 52.01%
0 0 34.0365 8 64.7207 Cuts:9 183 47.41%
0 0 35.9121 9 64.7207 Cuts:6 206 44.51%
0+ 0 nan nan 62.0724 35.9121 nan 42.14%
0 0 38.0430 10 62.0724 Cuts:13 254 38.71%
0 0 38.3152 10 62.0724 Cuts:2 272 38.27%
0 0 38.5604 10 62.0724 Cuts:3 288 37.88%
0+ 0 nan nan 50.4434 38.5604 nan 23.56%
0+ 0 nan nan 47.1931 38.5604 nan 18.29%
0 2 38.5604 10 47.1931 38.9316 288 17.51%
CPXPARAM_MIP_Cuts_Gomory-Disjunctive:Gomory 5
CPXPARAM_MIP_Cuts_Gomory-Disjunctive:Disjunctive 6
15
Node Left Objective IInf Best_Integer Best_Bound ItCnt Gap
0+ 0 nan nan 110.3567 0.0000 nan 100.00%
0+ 0 nan nan 93.2185 0.0000 nan 100.00%
0 0 0.2742 21 93.2185 0.2742 115 99.71%
0+ 0 nan nan 39.7563 0.2742 nan 99.31%
0 0 4.6659 16 39.7563 Cuts:30 161 88.26%
0+ 0 nan nan 24.0089 4.6659 nan 80.57%
0+ 0 nan nan 18.7937 4.6659 nan 75.17%
0+ 0 nan nan 12.5602 4.6659 nan 62.85%
0 2 5.6040 13 12.5602 5.6042 161 55.38%
CPXPARAM_MIP_Cuts_Gomory-Disjunctive:Gomory 2
CPXPARAM_MIP_Cuts_Gomory-Disjunctive:Disjunctive 8
16
Node Left Objective IInf Best_Integer Best_Bound ItCnt Gap
0+ 0 nan nan 109.2984 0.0000 nan 100.00%
0+ 0 nan nan 99.1849 0.0000 nan 100.00%
0 0 39.0015 15 99.1849 39.0015 136 60.68%
0+ 0 nan nan 96.2736 39.0015 nan 59.49%
0 0 47.5834 15 96.2736 Cuts:19 174 50.57%
0+ 0 nan nan 68.6047 47.5834 nan 30.64%
0 0 47.9617 14 68.6047 Disjcuts:4 182 30.09%
0 0 49.3598 15 68.6047 Cuts:16 209 28.05%
0+ 0 nan nan 63.0801 49.3598 nan 21.75%
0 0 49.8595 16 63.0801 Cuts:12 232 20.96%
0 0 50.9902 16 63.0801 Cuts:14 257 19.17%
0 2 50.9902 16 63.0801 51.0433 257 19.08%
CPXPARAM_MIP_Cuts_Gomory-Disjunctive:Gomory 2
CPXPARAM_MIP_Cuts_Gomory-Disjunctive:Disjunctive 8
17
Node Left Objective IInf Best_Integer Best_Bound ItCnt Gap
0+ 0 nan nan 109.2984 0.0000 nan 100.00%
0+ 0 nan nan 97.6971 0.0000 nan 100.00%
0+ 0 nan nan 85.4994 0.0000 nan 100.00%
0 0 0.4869 27 85.4994 0.4869 123 99.43%
0+ 0 nan nan 71.6706 0.4869 nan 99.32%
0 0 4.6602 23 71.6706 Cuts:35 163 93.50%
0+ 0 nan nan 39.0294 4.6602 nan 88.06%
0 0 4.9680 20 39.0294 Disjcuts:4 174 87.27%
0 0 5.4881 23 39.0294 Cuts:10 191 85.94%
0+ 0 nan nan 24.0189 5.4881 nan 77.15%
0 0 5.8539 25 24.0189 Cuts:7 207 75.63%
0 0 6.3784 23 24.0189 Cuts:24 232 73.44%
0 2 6.3784 23 24.0189 7.0122 232 70.81%
CPXPARAM_MIP_Cuts_Gomory-Disjunctive:Gomory 3
CPXPARAM_MIP_Cuts_Gomory-Disjunctive:Disjunctive 8
18
Node Left Objective IInf Best_Integer Best_Bound ItCnt Gap
0+ 0 nan nan 109.2984 0.0000 nan 100.00%
0+ 0 nan nan 89.3009 0.0000 nan 100.00%
0 0 37.6534 9 89.3009 37.6534 120 57.84%
0+ 0 nan nan 78.0911 37.6534 nan 51.78%
0 0 43.3917 9 78.0911 Cuts:11 152 44.43%
0+ 0 nan nan 74.5007 43.3917 nan 41.76%
0 0 44.2520 10 74.5007 Disjcuts:3 165 40.60%
0+ 0 nan nan 68.4745 44.2520 nan 35.37%
0 0 48.1478 7 68.4745 Cuts:4 177 29.69%
0 0 48.4385 9 68.4745 Disjcuts:2 187 29.26%
0+ 0 nan nan 61.5336 48.4385 nan 21.28%
0+ 0 nan nan 58.9842 48.4385 nan 17.88%
0 2 48.4385 9 58.9842 48.4752 187 17.82%
CPXPARAM_MIP_Cuts_Gomory-Disjunctive:Gomory 2
CPXPARAM_MIP_Cuts_Gomory-Disjunctive:Disjunctive 6
19
Node Left Objective IInf Best_Integer Best_Bound ItCnt Gap
0+ 0 nan nan 109.2984 0.0000 nan 100.00%
0+ 0 nan nan 92.9814 0.0000 nan 100.00%
0 0 0.4309 20 92.9814 0.4309 108 99.54%
0+ 0 nan nan 60.8556 0.4309 nan 99.29%
0 0 3.9497 16 60.8556 Cuts:28 137 93.51%
0+ 0 nan nan 28.4791 3.9497 nan 86.13%
0 0 4.7004 15 28.4791 Cuts:10 168 83.50%
0+ 0 nan nan 23.5731 4.7004 nan 80.06%
0 0 5.2633 12 23.5731 Disjcuts:1 172 77.67%
0 0 5.9772 17 23.5731 Cuts:3 192 74.64%
0+ 0 nan nan 23.3438 5.9772 nan 74.40%
0+ 0 nan nan 22.9443 5.9772 nan 73.95%
0+ 0 nan nan 17.1244 5.9772 nan 65.10%
0 2 5.9772 17 17.1244 6.1926 192 63.84%
CPXPARAM_MIP_Cuts_Gomory-Disjunctive:Gomory 3
CPXPARAM_MIP_Cuts_Gomory-Disjunctive:Disjunctive 9
20
Node Left Objective IInf Best_Integer Best_Bound ItCnt Gap
0+ 0 nan nan 93.3792 0.0000 nan 100.00%
0+ 0 nan nan 84.6822 0.0000 nan 100.00%
0 0 9.0972 13 84.6822 9.0972 140 89.26%
0+ 0 nan nan 42.0305 9.0972 nan 78.36%
0 0 15.9643 12 42.0305 Cuts:16 175 62.02%
0 0 15.9678 14 42.0305 Disjcuts:4 185 62.01%
0 0 16.4697 14 42.0305 Cuts:9 210 60.81%
0 0 18.8956 13 42.0305 Cuts:16 237 55.04%
0+ 0 nan nan 40.5591 18.8956 nan 53.41%
0 0 20.9946 13 40.5591 Cuts:15 276 48.24%
0+ 0 nan nan 38.2166 20.9946 nan 45.06%
0 2 20.9946 13 38.2166 21.0806 276 44.84%
CPXPARAM_MIP_Cuts_Gomory-Disjunctive:Gomory 3
CPXPARAM_MIP_Cuts_Gomory-Disjunctive:Disjunctive 3
21
Node Left Objective IInf Best_Integer Best_Bound ItCnt Gap
0+ 0 nan nan 93.3792 0.0000 nan 100.00%
0+ 0 nan nan 84.6822 0.0000 nan 100.00%
0+ 0 nan nan 73.2863 0.0000 nan 100.00%
0 0 0.3515 25 73.2863 0.3515 121 99.52%
0+ 0 nan nan 24.0307 0.3515 nan 98.54%
0 0 1.9314 24 24.0307 Cuts:24 162 91.96%
0 0 2.4061 24 24.0307 Cuts:11 186 89.99%
0+ 0 nan nan 14.6626 2.4061 nan 83.59%
0 0 2.6615 25 14.6626 Disjcuts:6 201 81.85%
0 0 2.8467 23 14.6626 Disjcuts:5 223 80.59%
0+ 0 nan nan 9.4479 2.8467 nan 69.87%
0 0 2.8915 24 9.4479 Disjcuts:4 233 69.40%
0 2 3.4186 16 9.4479 3.4648 233 63.33%
CPXPARAM_MIP_Cuts_Gomory-Disjunctive:Gomory 2
CPXPARAM_MIP_Cuts_Gomory-Disjunctive:Disjunctive 16
22
Node Left Objective IInf Best_Integer Best_Bound ItCnt Gap
0+ 0 nan nan 93.3792 0.0000 nan 100.00%
0+ 0 nan nan 79.5308 0.0000 nan 100.00%
0 0 9.0491 6 79.5308 9.0491 129 88.62%
0+ 0 nan nan 30.9085 9.0491 nan 70.72%
0 0 15.4119 8 30.9085 Cuts:5 156 50.14%
0 0 18.0437 5 30.9085 Cuts:5 187 41.62%
0+ 0 nan nan 28.6581 18.0437 nan 37.04%
0 2 18.0437 5 28.6581 19.4094 187 32.27%
CPXPARAM_MIP_Cuts_Gomory-Disjunctive:Gomory 2
CPXPARAM_MIP_Cuts_Gomory-Disjunctive:Disjunctive 3
23
Node Left Objective IInf Best_Integer Best_Bound ItCnt Gap
0+ 0 nan nan 93.3792 0.0000 nan 100.00%
0+ 0 nan nan 78.2544 0.0000 nan 100.00%
0 0 0.1756 21 78.2544 0.1756 110 99.78%
0+ 0 nan nan 32.8177 0.1756 nan 99.46%
0 0 2.6695 14 32.8177 Cuts:24 146 91.87%
0+ 0 nan nan 4.7890 2.6695 nan 44.26%
0 0 2.7267 13 4.7890 Disjcuts:1 149 43.06%
0 2 2.9624 9 4.7890 2.9624 152 38.14%
CPXPARAM_MIP_Cuts_Gomory-Disjunctive:Gomory 4
CPXPARAM_MIP_Cuts_Gomory-Disjunctive:Disjunctive 5
24
Node Left Objective IInf Best_Integer Best_Bound ItCnt Gap
0+ 0 nan nan 94.5045 0.0000 nan 100.00%
0+ 0 nan nan 83.7373 0.0000 nan 100.00%
0 0 13.3998 12 83.7373 13.3998 136 84.00%
0+ 0 nan nan 63.4898 13.3998 nan 78.89%
0 0 22.6915 12 63.4898 Cuts:13 165 64.26%
0+ 0 nan nan 62.4975 22.6915 nan 63.69%
0 0 26.1054 13 62.4975 Cuts:8 208 58.23%
0+ 0 nan nan 47.2384 26.1054 nan 44.74%
0 0 26.3146 13 47.2384 Disjcuts:3 228 44.29%
0 0 28.1783 13 47.2384 Cuts:11 261 40.35%
0 0 28.2350 13 47.2384 Cuts:5 271 40.23%
0 0 28.2416 14 47.2384 Fract:1 278 40.21%
0 2 28.2416 14 47.2384 28.2716 278 40.15%
CPXPARAM_MIP_Cuts_Gomory-Disjunctive:Gomory 6
CPXPARAM_MIP_Cuts_Gomory-Disjunctive:Disjunctive 3
25
Node Left Objective IInf Best_Integer Best_Bound ItCnt Gap
0+ 0 nan nan 94.5045 0.0000 nan 100.00%
0+ 0 nan nan 83.9802 0.0000 nan 100.00%
0 0 0.3418 26 83.9802 0.3418 117 99.59%
0+ 0 nan nan 41.4760 0.3418 nan 99.18%
0 0 2.1888 22 41.4760 Cuts:32 170 94.72%
0+ 0 nan nan 9.6833 2.1888 nan 77.40%
0 0 2.7271 22 9.6833 Disjcuts:6 200 71.84%
0 0 2.7834 24 9.6833 Cuts:5 214 71.26%
0 0 2.8937 23 9.6833 Disjcuts:3 225 70.12%
0+ 0 nan nan 7.6980 2.8937 nan 62.41%
0 0 2.9140 22 7.6980 Disjcuts:1 227 62.15%
0 2 3.3864 14 7.6980 3.4513 227 55.17%
CPXPARAM_MIP_Cuts_Gomory-Disjunctive:Gomory 2
CPXPARAM_MIP_Cuts_Gomory-Disjunctive:Disjunctive 13
26
Node Left Objective IInf Best_Integer Best_Bound ItCnt Gap
0+ 0 nan nan 94.5045 0.0000 nan 100.00%
0+ 0 nan nan 80.2086 0.0000 nan 100.00%
0 0 12.4465 6 80.2086 12.4465 132 84.48%
0+ 0 nan nan 40.0498 12.4465 nan 68.92%
0 0 21.5686 7 40.0498 Cuts:11 165 46.15%
0 0 24.9310 7 40.0498 Cuts:7 198 37.75%
0 0 25.1771 8 40.0498 Cuts:3 212 37.14%
0 0 26.7123 6 40.0498 Fract:3 247 33.30%
0+ 0 nan nan 36.9975 26.7123 nan 27.80%
0 0 28.6381 6 36.9975 Cuts:8 282 22.59%
0+ 0 nan nan 36.9394 28.6381 nan 22.47%
0 2 28.6381 6 36.9394 28.7891 282 22.06%
CPXPARAM_MIP_Cuts_Gomory-Disjunctive:Gomory 6
CPXPARAM_MIP_Cuts_Gomory-Disjunctive:Disjunctive 4
27
Node Left Objective IInf Best_Integer Best_Bound ItCnt Gap
0+ 0 nan nan 94.5045 0.0000 nan 100.00%
0+ 0 nan nan 84.6207 0.0000 nan 100.00%
0 0 0.1609 19 84.6207 0.1609 117 99.81%
0+ 0 nan nan 40.7896 0.1609 nan 99.61%
0 0 2.1583 16 40.7896 Cuts:20 148 94.71%
0+ 0 nan nan 6.1941 2.1583 nan 65.15%
0 0 2.2367 16 6.1941 Cuts:3 159 63.89%
0 0 2.2946 15 6.1941 Disjcuts:2 169 62.96%
0+ 0 nan nan 6.0722 2.2946 nan 62.21%
0 0 2.3374 14 6.0722 Disjcuts:2 177 61.51%
0+ 0 nan nan 5.0046 2.3374 nan 53.30%
0 2 2.8908 9 5.0046 3.1744 177 36.57%
CPXPARAM_MIP_Cuts_Gomory-Disjunctive:Gomory 2
CPXPARAM_MIP_Cuts_Gomory-Disjunctive:Disjunctive 7
28
Node Left Objective IInf Best_Integer Best_Bound ItCnt Gap
0+ 0 nan nan 133.7092 0.0000 nan 100.00%
0+ 0 nan nan 130.8863 0.0000 nan 100.00%
0+ 0 nan nan 108.6480 0.0000 nan 100.00%
0 0 32.9611 14 108.6480 32.9611 141 69.66%
0 0 46.6270 16 108.6480 Cuts:19 180 57.08%
0+ 0 nan nan 104.4446 46.6270 nan 55.36%
0 0 50.4623 15 104.4446 Disjcuts:4 196 51.69%
0 0 51.9906 15 104.4446 Cuts:15 217 50.22%
0+ 0 nan nan 90.0776 51.9906 nan 42.28%
0+ 0 nan nan 80.5555 51.9906 nan 35.46%
0 2 51.9906 15 80.5555 52.0872 217 35.34%
CPXPARAM_MIP_Cuts_Gomory-Disjunctive:Gomory 3
CPXPARAM_MIP_Cuts_Gomory-Disjunctive:Disjunctive 7
29
Node Left Objective IInf Best_Integer Best_Bound ItCnt Gap
0+ 0 nan nan 133.7092 0.0000 nan 100.00%
0+ 0 nan nan 129.6212 0.0000 nan 100.00%
0 0 0.0000 27 129.6212 0.0000 100 100.00%
0+ 0 nan nan 76.0776 0.0000 nan 100.00%
0 0 5.0354 22 76.0776 Cuts:33 212 93.38%
0+ 0 nan nan 17.8560 5.0354 nan 71.80%
0 0 6.0662 20 17.8560 Disjcuts:9 232 66.03%
0+ 0 nan nan 16.1240 6.0662 nan 62.38%
0 0 6.2981 20 16.1240 Disjcuts:2 242 60.94%
0 2 6.2981 20 16.1240 6.4238 242 60.16%
CPXPARAM_MIP_Cuts_Gomory-Disjunctive:Gomory 2
CPXPARAM_MIP_Cuts_Gomory-Disjunctive:Disjunctive 12
30
Node Left Objective IInf Best_Integer Best_Bound ItCnt Gap
0+ 0 nan nan 133.7092 0.0000 nan 100.00%
0+ 0 nan nan 115.4430 0.0000 nan 100.00%
0 0 35.6764 9 115.4430 35.6764 127 69.10%
0+ 0 nan nan 93.6289 35.6764 nan 61.90%
0 0 44.2811 9 93.6289 Cuts:14 157 52.71%
0 0 45.0107 10 93.6289 Disjcuts:2 166 51.93%
0 0 50.1649 11 93.6289 Cuts:7 215 46.42%
0+ 0 nan nan 76.0338 50.1649 nan 34.02%
0 0 55.8579 9 76.0338 Cuts:13 262 26.54%
0 0 57.3305 12 76.0338 Cuts:7 280 24.60%
0 0 57.3349 11 76.0338 Fract:3 285 24.59%
0+ 0 nan nan 73.4954 57.3349 nan 21.99%
0 2 57.3349 11 73.4954 57.6972 285 21.50%
CPXPARAM_MIP_Cuts_Gomory-Disjunctive:Gomory 5
CPXPARAM_MIP_Cuts_Gomory-Disjunctive:Disjunctive 10
31
Node Left Objective IInf Best_Integer Best_Bound ItCnt Gap
0+ 0 nan nan 133.7092 0.0000 nan 100.00%
0+ 0 nan nan 114.7297 0.0000 nan 100.00%
0 0 0.2882 21 114.7297 0.2882 112 99.75%
0+ 0 nan nan 42.2849 0.2882 nan 99.32%
0 0 3.5465 17 42.2849 Cuts:20 140 91.61%
0+ 0 nan nan 16.4510 3.5465 nan 78.44%
0 0 4.8419 13 16.4510 Disjcuts:8 153 70.57%
0+ 0 nan nan 16.1689 4.8419 nan 70.05%
0 0 5.0636 16 16.1689 Disjcuts:4 163 68.68%
0 0 5.1473 15 16.1689 Disjcuts:1 171 68.17%
0 0 5.6819 15 16.1689 Cuts:11 200 64.86%
0+ 0 nan nan 11.8255 5.6819 nan 51.95%
0+ 0 nan nan 9.4088 5.6819 nan 39.61%
0+ 0 nan nan 9.4088 5.6819 nan 39.61%
0 0 8.0158 2 9.4088 8.0158 247 14.81%
0 0 8.0158 3 9.4088 Cuts:4 252 14.81%
0 0 8.0158 2 9.4088 Fract:3 255 14.81%
0 2 8.0158 2 9.4088 8.0158 255 14.81%
CPXPARAM_MIP_Cuts_Gomory-Disjunctive:Gomory 5
CPXPARAM_MIP_Cuts_Gomory-Disjunctive:Disjunctive 1
32
Node Left Objective IInf Best_Integer Best_Bound ItCnt Gap
0+ 0 nan nan 110.7059 0.0000 nan 100.00%
0+ 0 nan nan 93.8685 0.0000 nan 100.00%
0+ 0 nan nan 88.1652 0.0000 nan 100.00%
0 0 26.6543 14 88.1652 26.6543 129 69.77%
0+ 0 nan nan 72.9257 26.6543 nan 63.45%
0 0 31.4642 15 72.9257 Cuts:16 158 56.85%
0+ 0 nan nan 69.5946 31.4642 nan 54.79%
0 0 33.5220 14 69.5946 Cuts:13 194 51.83%
0 0 34.6528 16 69.5946 Disjcuts:3 240 50.21%
0+ 0 nan nan 61.5691 34.6528 nan 43.72%
0 0 35.1868 17 61.5691 Cuts:7 249 42.85%
0+ 0 nan nan 58.9657 35.1868 nan 40.33%
0 0 35.2777 17 58.9657 Cuts:6 255 40.17%
0+ 0 nan nan 50.9550 35.2777 nan 30.77%
0 2 35.2777 17 50.9550 35.2833 255 30.76%
CPXPARAM_MIP_Cuts_Gomory-Disjunctive:Gomory 5
CPXPARAM_MIP_Cuts_Gomory-Disjunctive:Disjunctive 8
33
Node Left Objective IInf Best_Integer Best_Bound ItCnt Gap
0+ 0 nan nan 110.7059 0.0000 nan 100.00%
0+ 0 nan nan 93.8685 0.0000 nan 100.00%
0+ 0 nan nan 66.0679 0.0000 nan 100.00%
0 0 0.7986 24 66.0679 0.7986 121 98.79%
0 0 4.9388 22 66.0679 Cuts:32 152 92.52%
0+ 0 nan nan 36.5673 4.9388 nan 86.49%
0 0 5.6235 24 36.5673 Disjcuts:7 161 84.62%
0+ 0 nan nan 18.2559 5.6235 nan 69.20%
0 0 6.2080 20 18.2559 Disjcuts:5 180 65.99%
0 0 6.5099 22 18.2559 Disjcuts:6 188 64.34%
0 0 7.6568 24 18.2559 Cuts:10 217 58.06%
0+ 0 nan nan 13.4712 7.6568 nan 43.16%
0+ 0 nan nan 11.6909 7.6568 nan 34.51%
0 2 9.1498 15 11.6909 9.2938 217 20.50%
CPXPARAM_MIP_Cuts_Gomory-Disjunctive:Gomory 0
CPXPARAM_MIP_Cuts_Gomory-Disjunctive:Disjunctive 14
34
Node Left Objective IInf Best_Integer Best_Bound ItCnt Gap
0+ 0 nan nan 110.7059 0.0000 nan 100.00%
0+ 0 nan nan 76.3517 0.0000 nan 100.00%
0 0 25.6680 9 76.3517 25.6680 130 66.38%
0+ 0 nan nan 53.1922 25.6680 nan 51.74%
0 0 32.8002 9 53.1922 Cuts:11 156 38.34%
0+ 0 nan nan 49.6360 32.8002 nan 33.92%
0+ 0 nan nan 46.7787 32.8002 nan 29.88%
0 2 32.8002 9 46.7787 34.2628 156 26.76%
CPXPARAM_MIP_Cuts_Gomory-Disjunctive:Gomory 2
CPXPARAM_MIP_Cuts_Gomory-Disjunctive:Disjunctive 2
35
Node Left Objective IInf Best_Integer Best_Bound ItCnt Gap
0+ 0 nan nan 110.7059 0.0000 nan 100.00%
0+ 0 nan nan 91.5929 0.0000 nan 100.00%
0 0 0.5699 21 91.5929 0.5699 111 99.38%
0+ 0 nan nan 46.2042 0.5699 nan 98.77%
0 0 5.6403 16 46.2042 Cuts:21 148 87.79%
0+ 0 nan nan 15.5776 5.6403 nan 63.79%
0 0 6.2289 19 15.5776 Disjcuts:6 181 60.01%
0+ 0 nan nan 11.4096 6.2289 nan 45.41%
0 2 9.2557 9 11.4096 9.2752 181 18.71%
CPXPARAM_MIP_Cuts_Gomory-Disjunctive:Gomory 1
CPXPARAM_MIP_Cuts_Gomory-Disjunctive:Disjunctive 10
36
Node Left Objective IInf Best_Integer Best_Bound ItCnt Gap
0+ 0 nan nan 123.7135 0.0000 nan 100.00%
0+ 0 nan nan 108.6148 0.0000 nan 100.00%
0+ 0 nan nan 101.4822 0.0000 nan 100.00%
0 0 14.9500 14 101.4822 14.9500 143 85.27%
0+ 0 nan nan 85.1671 14.9500 nan 82.45%
0 0 24.6276 15 85.1671 Cuts:17 180 71.08%
0+ 0 nan nan 72.2426 24.6276 nan 65.91%
0 0 24.8183 13 72.2426 Disjcuts:2 188 65.65%
0 0 29.4999 15 72.2426 Cuts:11 211 59.17%
0 0 34.6183 13 72.2426 Cuts:18 249 52.08%
0+ 0 nan nan 64.5947 34.6183 nan 46.41%
0 0 35.0819 15 64.5947 Cuts:9 281 45.69%
0+ 0 nan nan 57.1440 35.0819 nan 38.61%
0 0 35.1736 14 57.1440 Cuts:2 291 38.45%
0 2 35.1736 14 57.1440 35.2535 291 38.31%
CPXPARAM_MIP_Cuts_Gomory-Disjunctive:Gomory 5
CPXPARAM_MIP_Cuts_Gomory-Disjunctive:Disjunctive 4
37
Node Left Objective IInf Best_Integer Best_Bound ItCnt Gap
0+ 0 nan nan 123.7135 0.0000 nan 100.00%
0+ 0 nan nan 108.8244 0.0000 nan 100.00%
0+ 0 nan nan 97.8424 0.0000 nan 100.00%
0 0 0.0000 28 97.8424 0.0000 113 100.00%
0+ 0 nan nan 83.8211 0.0000 nan 100.00%
0 0 3.4414 22 83.8211 Cuts:44 203 95.89%
0+ 0 nan nan 15.4571 3.4414 nan 77.74%
0 0 3.4919 23 15.4571 Disjcuts:4 214 77.41%
0+ 0 nan nan 14.7888 3.4919 nan 76.39%
0 0 3.8215 22 14.7888 Cuts:14 253 74.16%
0+ 0 nan nan 10.8866 3.8215 nan 64.90%
0 0 4.4169 22 10.8866 Cuts:23 292 59.43%
0 0 4.7910 22 10.8866 Cuts:19 318 55.99%
0+ 0 nan nan 10.0449 4.7910 nan 52.30%
0 2 5.0924 13 10.0449 5.1094 318 49.13%
CPXPARAM_MIP_Cuts_Gomory-Disjunctive:Gomory 4
CPXPARAM_MIP_Cuts_Gomory-Disjunctive:Disjunctive 11
38
Node Left Objective IInf Best_Integer Best_Bound ItCnt Gap
0+ 0 nan nan 123.7135 0.0000 nan 100.00%
0+ 0 nan nan 93.6483 0.0000 nan 100.00%
0 0 20.1701 7 93.6483 20.1701 129 78.46%
0+ 0 nan nan 48.5233 20.1701 nan 58.43%
0 0 31.8209 7 48.5233 Cuts:13 157 34.42%
0 0 34.8068 10 48.5233 Cuts:11 191 28.27%
0 0 35.0242 8 48.5233 Cuts:2 200 27.82%
0 0 35.0892 9 48.5233 Disjcuts:1 207 27.69%
0 0 36.3577 6 48.5233 Cuts:4 229 25.07%
0 0 36.8925 9 48.5233 Fract:4 261 23.97%
0 0 37.0359 10 48.5233 Disjcuts:2 268 23.67%
0 2 37.0359 10 48.5233 37.0574 268 23.63%
CPXPARAM_MIP_Cuts_Gomory-Disjunctive:Gomory 6
CPXPARAM_MIP_Cuts_Gomory-Disjunctive:Disjunctive 7
39
Node Left Objective IInf Best_Integer Best_Bound ItCnt Gap
0+ 0 nan nan 123.7135 0.0000 nan 100.00%
0+ 0 nan nan 89.8836 0.0000 nan 100.00%
0 0 0.2044 22 89.8836 0.2044 126 99.77%
0+ 0 nan nan 45.3370 0.2044 nan 99.55%
0 0 2.8235 15 45.3370 Cuts:29 179 93.77%
0+ 0 nan nan 9.1696 2.8235 nan 69.21%
0+ 0 nan nan 8.0806 2.8235 nan 65.06%
0 2 3.8273 8 8.0806 4.1948 179 48.09%
CPXPARAM_MIP_Cuts_Gomory-Disjunctive:Gomory 2
CPXPARAM_MIP_Cuts_Gomory-Disjunctive:Disjunctive 6
